
<<< setup


<<< generate

CPXPARAM_TimeLimit                               3600
Found incumbent of value 0,000000 after 1,58 sec. (1212,76 ticks)
Presolve has eliminated 5933788 rows and 7206347 columns...
Presolve has improved bounds 328 times...
Presolve has eliminated 5933887 rows and 7211707 columns...
Presolve has improved bounds 5688 times...
Aggregator has done 2 substitutions...
Aggregator has done 4 substitutions...
Aggregator has done 5 substitutions...
Aggregator has done 7 substitutions...
Aggregator has done 8 substitutions...
Aggregator has done 10 substitutions...
Aggregator has done 11 substitutions...
Aggregator has done 13 substitutions...
Aggregator has done 14 substitutions...
Aggregator has done 16 substitutions...
Aggregator has done 17 substitutions...
Aggregator has done 19 substitutions...
Aggregator has done 20 substitutions...
Tried aggregator 22 times.
Aggregator has done 21 substitutions...
MIP Presolve eliminated 5933887 rows and 7211748 columns.
Aggregator did 21 substitutions.
Reduced MIP has 83998 rows, 7160131 columns, and 21228801 nonzeros.
Reduced MIP has 7160130 binaries, 1 generals, 0 SOSs, and 0 indicators.
Presolve time = 230,97 sec. (183193,87 ticks)
Presolve has eliminated 0 rows and 0 columns...
Tried aggregator 1 time.
Reduced MIP has 83998 rows, 7160131 columns, and 21228801 nonzeros.
Reduced MIP has 7160130 binaries, 1 generals, 0 SOSs, and 0 indicators.
Presolve time = 44,22 sec. (24855,45 ticks)

Root node processing (before b&c):
  Real time             =  325,28 sec. (218731,24 ticks)
Parallel b&c, 8 threads:
  Real time             =    0,00 sec. (0,00 ticks)
  Sync time (average)   =    0,00 sec.
  Wait time (average)   =    0,00 sec.
                          ------------
Total (root+branch&cut) =  325,28 sec. (218731,24 ticks)
*** FATAL[ENGINE_002]: Exception IBM ILOG CPLEX : CPLEX Error  1001: Out of memory.
.
### ENGINE exception: Echec du traitement.

<<< no solution

